2023/11/29
gurobi is now 11.0.0
previous version was 10.0.3
solving instance knapsack 10 9 sinabc2
Set parameter TokenServer to value "licences.gerad.lan"
Set parameter MIPGap to value 1e-06
Set parameter FuncPieceError to value 1e-06
Set parameter Threads to value 1
Set parameter FuncPieces to value -2
Set parameter TimeLimit to value 3600
Gurobi Optimizer version 12.0.0 build v12.0.0rc1 (linux64 - "AlmaLinux 9.6 (Sage Margay)")

CPU model: Intel(R) Xeon(R) Gold 6258R CPU @ 2.70GHz, instruction set [SSE2|AVX|AVX2|AVX512]
Thread count: 56 physical cores, 56 logical processors, using up to 1 threads

Non-default parameters:
TimeLimit  3600
MIPGap  1e-06
Threads  1
FuncPieces  -2
FuncPieceError  1e-06

Optimize a model with 51 rows, 70 columns and 110 nonzeros
Model fingerprint: 0xe53985cf
Model has 20 function constraints treated as nonlinear
  10 POW, 10 SIN
Variable types: 60 continuous, 10 integer (10 binary)
Coefficient statistics:
  Matrix range     [5e-02, 1e+02]
  Objective range  [1e+00, 1e+00]
  Bounds range     [1e+00, 1e+10]
  RHS range        [1e+02, 3e+04]
Warning: Model contains large bounds
         Consider reformulating model or setting NumericFocus parameter
         to avoid numerical issues.
Presolve removed 40 rows and 40 columns
Presolve time: 0.00s
Presolved: 102 rows, 42 columns, 231 nonzeros
Presolved model has 10 bilinear constraint(s)
Presolved model has 10 nonlinear constraint(s)

Solving non-convex MINLP

Variable types: 42 continuous, 0 integer (0 binary)
Found heuristic solution: objective -153.5021536

Root relaxation: objective -3.655946e+02, 49 iterations, 0.00 seconds (0.00 work units)

    Nodes    |    Current Node    |     Objective Bounds      |     Work
 Expl Unexpl |  Obj  Depth IntInf | Incumbent    BestBd   Gap | It/Node Time

     0     0 -365.59462    0   16 -153.50215 -365.59462   138%     -    0s
     0     0 -258.49761    0   17 -153.50215 -258.49761  68.4%     -    0s
     0     0 -227.78690    0   14 -153.50215 -227.78690  48.4%     -    0s
     0     0 -224.42087    0   13 -153.50215 -224.42087  46.2%     -    0s
     0     0 -224.34996    0   13 -153.50215 -224.34996  46.2%     -    0s
     0     0 -224.34226    0   14 -153.50215 -224.34226  46.1%     -    0s
     0     0 -224.31783    0   14 -153.50215 -224.31783  46.1%     -    0s
     0     0 -218.58691    0   12 -153.50215 -218.58691  42.4%     -    0s
H    0     0                    -199.0365702 -218.58691  9.82%     -    0s
     0     2 -218.58691    0   12 -199.03657 -218.58691  9.82%     -    0s
H    8     4                    -203.0120843 -217.33882  7.06%  11.1    0s
H   35    13                    -203.0136318 -207.66180  2.29%   8.3    0s
H   40    14                    -203.0136334 -207.66180  2.29%   8.0    0s
H   46    16                    -203.0137099 -207.66180  2.29%   7.4    0s
H   48    18                    -203.0137866 -207.66180  2.29%   7.1    0s
H   48    18                    -203.0137901 -207.66180  2.29%   7.1    0s
*   54    16              20    -203.0137906 -207.66180  2.29%   7.8    0s

Cutting planes:
  RLT: 11

Explored 107 nodes (722 simplex iterations) in 0.07 seconds (0.02 work units)
Thread count was 1 (of 56 available processors)

Solution count 8: -203.014 -203.014 -203.014 ... -153.502
No other solutions better than -203.014

Optimal solution found (tolerance 1.00e-06)
Best objective -2.030137906331e+02, best bound -2.030137906340e+02, gap 0.0000%

User-callback calls 606, time in user-callback 0.01 sec
primal_bound = -203.01379063306786, dual_bound = 0.0, gap = 100.0, time = 0.35
